// Problem statement from Mozart/Oz tutorial:
// http://www.mozart-oz.org/home/doc/fdt/node37.html#section.reified.photo

n = 7;
preferences =
[
//  B C D F G M P
   [0,0,0,0,1,1,0],  // Betty  1
   [1,0,0,0,1,0,0],  // Chris  2
   [0,0,0,0,0,0,0],  // Donald 3
   [0,0,1,0,0,1,0],  // Fred   4
   [0,0,0,0,0,0,0],  // Gary   5
   [0,0,0,0,0,0,0],  // Mary   6
   [0,0,1,1,0,0,0]   // Paul   7
];
